* ENCODING=ISO-8859-1
NAME          CPLEX
ROWS
 N  obj1    
 G  c1      
 G  c2      
 G  c3      
 G  c4      
 G  c5      
 G  c6      
 G  c7      
 G  c8      
 G  c9      
 G  c10     
 G  c11     
 G  c12     
 G  c13     
 G  c14     
 G  c15     
 G  c16     
 G  c17     
 G  c18     
 G  c19     
 G  c20     
 G  c21     
 G  c22     
 G  c23     
 G  c24     
 G  c25     
 G  c26     
 G  c27     
 G  c28     
 G  c29     
 G  c30     
 G  c31     
 G  c32     
 G  c33     
 G  c34     
 G  c35     
 G  c36     
 G  c37     
 G  c38     
 G  c39     
 G  c40     
 G  c41     
 G  c42     
 G  c43     
 G  c44     
 G  c45     
 G  c46     
 G  c47     
 G  c48     
 G  c49     
 G  c50     
 G  c51     
 G  c52     
 G  c53     
 G  c54     
 G  c55     
 G  c56     
 G  c57     
 G  c58     
 G  c59     
 G  c60     
COLUMNS
    MARK0000  'MARKER'                 'INTORG'
    x1        obj1                            1
    x1        c1                            863
    x1        c9                            335
    x1        c13                           201
    x1        c14                           293
    x1        c16                           924
    x1        c21                           893
    x1        c31                           931
    x1        c34                           247
    x1        c44                           355
    x1        c49                           390
    x1        c54                           609
    x2        obj1                            1
    x2        c3                            935
    x2        c4                            734
    x2        c9                            462
    x2        c14                           546
    x2        c21                           909
    x2        c29                           662
    x2        c30                           455
    x2        c31                           359
    x2        c38                           164
    x2        c58                           950
    x3        obj1                            1
    x3        c1                            655
    x3        c21                           523
    x3        c29                           749
    x3        c30                           962
    x3        c32                           273
    x3        c36                           216
    x3        c42                           790
    x3        c54                           956
    x3        c55                           482
    x4        obj1                            1
    x4        c14                           735
    x4        c17                           703
    x5        obj1                            1
    x5        c12                           515
    x5        c29                           165
    x5        c51                           718
    x6        obj1                            1
    x6        c4                            945
    x6        c19                           587
    x6        c28                           667
    x6        c34                           795
    x6        c45                           117
    x6        c52                           388
    x7        obj1                            1
    x7        c6                            510
    x7        c13                           968
    x7        c33                           557
    x7        c36                           249
    x8        obj1                            1
    x8        c9                            577
    x8        c45                           636
    x8        c52                           270
    x9        obj1                            1
    x9        c3                            115
    x9        c7                            910
    x9        c22                           578
    x9        c27                           637
    x9        c45                           715
    x9        c46                           110
    x9        c47                           437
    x10       obj1                            1
    x10       c4                            983
    x10       c13                           698
    x10       c14                           627
    x10       c15                           984
    x10       c27                           803
    x10       c29                           739
    x11       obj1                            1
    x11       c2                            782
    x11       c18                           439
    x11       c25                           630
    x11       c30                           408
    x11       c32                           545
    x11       c43                           755
    x11       c59                           417
    x12       obj1                            1
    x12       c2                            506
    x12       c5                            273
    x12       c12                           515
    x12       c21                           651
    x12       c39                           701
    x13       obj1                            1
    x13       c8                            749
    x13       c9                            185
    x13       c13                           226
    x13       c19                           781
    x13       c31                           874
    x14       obj1                            1
    x14       c14                           676
    x14       c27                           294
    x14       c32                           550
    x15       obj1                            1
    x15       c8                            268
    x15       c9                            482
    x15       c14                           477
    x15       c19                           915
    x15       c24                           766
    x15       c30                           288
    x15       c33                           700
    x15       c48                           329
    x15       c59                           814
    x16       obj1                            1
    x16       c15                           476
    x16       c29                           756
    x16       c30                           701
    x16       c31                           197
    x16       c38                           468
    x16       c49                           592
    x16       c53                           190
    x16       c54                           121
    x16       c60                           187
    x17       obj1                            1
    x17       c28                           725
    x17       c30                           876
    x17       c32                           188
    x17       c40                           974
    x17       c47                           791
    x18       obj1                            1
    x18       c3                            551
    x18       c13                           240
    x18       c39                           773
    x18       c50                           855
    x18       c60                           259
    x19       obj1                            1
    x19       c29                           531
    x19       c35                           312
    x19       c41                           550
    x19       c58                           270
    x20       obj1                            1
    x20       c4                            457
    x20       c7                            838
    x20       c59                           790
    x21       obj1                            1
    x21       c22                           184
    x21       c32                           404
    x21       c40                           413
    x21       c56                           264
    x22       obj1                            1
    x22       c3                            499
    x22       c13                           970
    x22       c14                           588
    x22       c44                           229
    x22       c46                           461
    x22       c58                           479
    x23       obj1                            1
    x23       c44                           734
    x23       c52                           497
    x23       c56                           438
    x24       obj1                            1
    x24       c6                            956
    x24       c20                           100
    x24       c27                           850
    x24       c42                           984
    x24       c56                           246
    x24       c59                           704
    x25       obj1                            1
    x25       c2                            818
    x25       c21                           152
    x25       c25                           198
    x25       c30                           973
    x25       c42                           186
    x25       c43                           344
    x25       c47                           391
    x26       obj1                            1
    x26       c11                           894
    x26       c18                           356
    x26       c56                           699
    x26       c60                           899
    x27       obj1                            1
    x27       c5                            205
    x27       c16                           739
    x27       c25                           595
    x27       c32                           793
    x27       c47                           562
    x27       c57                           219
    x28       obj1                            1
    x28       c50                           803
    x28       c58                           121
    x29       obj1                            1
    x29       c15                           945
    x29       c17                           728
    x29       c51                           438
    x29       c57                           557
    x29       c59                           916
    x29       c60                           389
    x30       obj1                            1
    x30       c6                            733
    x30       c27                           773
    x30       c29                           916
    x30       c31                           907
    x30       c33                           714
    x30       c42                           622
    x30       c47                           301
    x31       obj1                            1
    x31       c1                            584
    x31       c17                           567
    x31       c23                           881
    x31       c32                           299
    x31       c36                           373
    x31       c39                           981
    x31       c46                           608
    x32       obj1                            1
    x32       c7                            155
    x32       c12                           260
    x32       c22                           857
    x32       c35                           427
    x32       c36                           779
    x32       c42                           347
    x32       c44                           817
    x33       obj1                            1
    x33       c28                           821
    x33       c30                           449
    x33       c31                           222
    x33       c33                           358
    x33       c36                           159
    x33       c47                           805
    x33       c49                           426
    x33       c54                           827
    x34       obj1                            1
    x34       c37                           753
    x34       c60                           930
    x35       obj1                            1
    x35       c8                            211
    x35       c20                           853
    x35       c42                           935
    x35       c46                           425
    x35       c59                           613
    x36       obj1                            1
    x36       c2                            849
    x36       c13                           965
    x36       c14                           929
    x36       c35                           572
    x36       c47                           703
    x36       c48                           866
    x37       obj1                            1
    x37       c13                           393
    x37       c33                           371
    x37       c47                           353
    x37       c53                           980
    x37       c56                           586
    x37       c59                           247
    x38       obj1                            1
    x38       c19                           939
    x38       c23                           821
    x38       c36                           773
    x38       c48                           602
    x38       c58                           621
    x39       obj1                            1
    x39       c9                            646
    x39       c20                           258
    x39       c37                           835
    x39       c41                           173
    x39       c44                           869
    x39       c60                           890
    x40       obj1                            1
    x40       c4                            627
    x40       c11                           184
    x40       c15                           299
    x40       c16                           304
    x40       c17                           588
    x40       c39                           739
    x40       c46                           882
    x40       c47                           826
    x40       c51                           781
    x41       obj1                            1
    x41       c3                            563
    x41       c37                           691
    x41       c39                           395
    x41       c50                           514
    x41       c53                           325
    x41       c54                           838
    x41       c55                           171
    x41       c60                           872
    x42       obj1                            1
    x42       c5                            153
    x42       c16                           498
    x42       c24                           755
    x42       c32                           303
    x42       c34                           860
    x42       c42                           433
    x43       obj1                            1
    x43       c17                           810
    x43       c22                           275
    x43       c34                           954
    x43       c39                           127
    x43       c45                           570
    x43       c55                           939
    x43       c58                           490
    x43       c60                           231
    x44       obj1                            1
    x44       c8                            860
    x44       c14                           544
    x44       c17                           785
    x44       c38                           536
    x44       c48                           477
    x44       c51                           164
    x45       obj1                            1
    x45       c3                            554
    x45       c7                            159
    x45       c10                           656
    x45       c16                           191
    x45       c17                           441
    x45       c26                           171
    x45       c36                           768
    x45       c46                           993
    x45       c57                           934
    x46       obj1                            1
    x46       c21                           486
    x46       c40                           691
    x46       c49                           287
    x46       c58                           878
    x47       obj1                            1
    x47       c18                           992
    x47       c57                           411
    x48       obj1                            1
    x48       c10                           378
    x48       c21                           715
    x48       c24                           272
    x48       c34                           222
    x49       obj1                            1
    x49       c12                           964
    x49       c16                           353
    x49       c19                           324
    x49       c20                           409
    x49       c23                           222
    x49       c43                           846
    x49       c58                           540
    x50       obj1                            1
    x50       c16                           390
    x50       c19                           524
    x50       c27                           227
    x50       c36                           723
    x50       c39                           431
    x50       c48                           256
    x50       c50                           122
    x50       c51                           355
    x51       obj1                            1
    x51       c2                            861
    x51       c3                            957
    x51       c10                           297
    x51       c26                           748
    x51       c27                           425
    x51       c30                           177
    x51       c45                           655
    x51       c49                           395
    x51       c52                           595
    x52       obj1                            1
    x52       c8                            377
    x52       c21                           698
    x52       c27                           616
    x52       c41                           586
    x52       c43                           131
    x52       c45                           619
    x52       c46                           994
    x52       c59                           207
    x53       obj1                            1
    x53       c4                            117
    x53       c12                           572
    x53       c37                           239
    x53       c52                           992
    x53       c59                           614
    x54       obj1                            1
    x54       c17                           724
    x54       c19                           403
    x54       c46                           971
    x55       obj1                            1
    x55       c10                           848
    x55       c11                           563
    x55       c54                           487
    x55       c60                           870
    x56       obj1                            1
    x56       c10                           867
    x56       c13                           346
    x56       c26                           140
    x56       c31                           231
    x56       c52                           334
    x57       obj1                            1
    x57       c2                            716
    x57       c3                            576
    x57       c29                           139
    x57       c33                           156
    x57       c38                           444
    x57       c48                           644
    x57       c49                           768
    x58       obj1                            1
    x58       c17                           465
    x58       c21                           748
    x58       c33                           854
    x58       c34                           926
    x58       c58                           586
    x59       obj1                            1
    x59       c9                            690
    x59       c23                           796
    x59       c24                           104
    x59       c27                           968
    x59       c31                           113
    x59       c39                           748
    x59       c55                           871
    x59       c57                           960
    x60       obj1                            1
    x60       c16                           211
    x60       c28                           680
    x60       c32                           978
    x60       c42                           648
    x60       c45                           511
    MARK0001  'MARKER'                 'INTEND'
RHS
    rhs       c1                           1051
    rhs       c2                           2266
    rhs       c3                           2375
    rhs       c4                           1932
    rhs       c5                            316
    rhs       c6                           1100
    rhs       c7                           1031
    rhs       c8                           1233
    rhs       c9                           1689
    rhs       c10                          1523
    rhs       c11                           821
    rhs       c12                          1413
    rhs       c13                          2504
    rhs       c14                          2708
    rhs       c15                          1352
    rhs       c16                          1805
    rhs       c17                          2906
    rhs       c18                           894
    rhs       c19                          2237
    rhs       c20                           810
    rhs       c21                          2888
    rhs       c22                           947
    rhs       c23                          1360
    rhs       c24                           949
    rhs       c25                           712
    rhs       c26                           530
    rhs       c27                          2797
    rhs       c28                          1447
    rhs       c29                          2329
    rhs       c30                          2645
    rhs       c31                          1917
    rhs       c32                          2167
    rhs       c33                          1855
    rhs       c34                          2002
    rhs       c35                           656
    rhs       c36                          2020
    rhs       c37                          1259
    rhs       c38                           806
    rhs       c39                          2448
    rhs       c40                          1039
    rhs       c41                           655
    rhs       c42                          2473
    rhs       c43                          1038
    rhs       c44                          1502
    rhs       c45                          1912
    rhs       c46                          2722
    rhs       c47                          2585
    rhs       c48                          1587
    rhs       c49                          1429
    rhs       c50                          1147
    rhs       c51                          1228
    rhs       c52                          1538
    rhs       c53                           748
    rhs       c54                          1919
    rhs       c55                          1232
    rhs       c56                          1117
    rhs       c57                          1541
    rhs       c58                          2468
    rhs       c59                          2661
    rhs       c60                          2764
BOUNDS
 LI bnd       x1        0
 LI bnd       x2        0
 LI bnd       x3        0
 LI bnd       x4        0
 LI bnd       x5        0
 LI bnd       x6        0
 LI bnd       x7        0
 LI bnd       x8        0
 LI bnd       x9        0
 LI bnd       x10       0
 LI bnd       x11       0
 LI bnd       x12       0
 LI bnd       x13       0
 LI bnd       x14       0
 LI bnd       x15       0
 LI bnd       x16       0
 LI bnd       x17       0
 LI bnd       x18       0
 LI bnd       x19       0
 LI bnd       x20       0
 LI bnd       x21       0
 LI bnd       x22       0
 LI bnd       x23       0
 LI bnd       x24       0
 LI bnd       x25       0
 LI bnd       x26       0
 LI bnd       x27       0
 LI bnd       x28       0
 LI bnd       x29       0
 LI bnd       x30       0
 LI bnd       x31       0
 LI bnd       x32       0
 LI bnd       x33       0
 LI bnd       x34       0
 LI bnd       x35       0
 LI bnd       x36       0
 LI bnd       x37       0
 LI bnd       x38       0
 LI bnd       x39       0
 LI bnd       x40       0
 LI bnd       x41       0
 LI bnd       x42       0
 LI bnd       x43       0
 LI bnd       x44       0
 LI bnd       x45       0
 LI bnd       x46       0
 LI bnd       x47       0
 LI bnd       x48       0
 LI bnd       x49       0
 LI bnd       x50       0
 LI bnd       x51       0
 LI bnd       x52       0
 LI bnd       x53       0
 LI bnd       x54       0
 LI bnd       x55       0
 LI bnd       x56       0
 LI bnd       x57       0
 LI bnd       x58       0
 LI bnd       x59       0
 LI bnd       x60       0
ENDATA
